#system definition

units metal
dimension 3
boundary p p p 
atom_style atomic

#initialization

region a block 0 20 0 20 0 20
lattice fcc 3.614
create_box 1 a 
create_atoms 1 region a
mass 1 63.5
write_data data.lmp

#Force-Field Interaction

pair_style eam
pair_coeff * * Cu_u3.eam

#Minimiztion
min_style cg
minimize 1e-6 1e-6 10000 10000
write_data min.lmp

#Equilibration
thermo 1
timestep 0.001
velocity all create 300 456784
fix 1 all nvt temp 300 300 100 


