#system definition

units metal
dimension 3
boundary p p p 
atom_style atomic

#Initialization
read_data final_new.data

#Force-Field Interaction
pair_style vashishta
pair_coeff * * InP.vashishta In P

write_data force_field.data

#minimization

min_style cg
minimize 1.0e-6 1.0e-6 10000 10000
write_data min.data

#Equilibration

timestep 0.001
reset_timestep 0
thermo 1000
velocity all create 300 23424
fix 1 all nve 
dump 1 all atom 1000 dump_nve.lammpstrj
run 50000
unfix 1 
undump 1
write_restart nve.rst

reset_timestep 0
fix 2 all npt temp 300 300 10 iso 1 1 1000
dump 2 all atom 100 dump_npt
run 100000
unfix 2
undump 2
write_restart npt.rst

reset_timestep 0
fix 3 all nvt temp 300 300 10 
dump 3 all atom 100 dump_nvt 
run 10000
unfix 3
undump 3
write_restart nvt.rst

reset_timestep 0
variable tmp equal "lz"
variable L0 equal ${tmp}
fix 4 all deform 100 z erate 0.001 units box
fix 5 all nvt temp 300 300 10
dump 4 all atom 100 dump_tensile.lammpstrj
variable strain equal "(lz - v_L0)/v_L0"
variable p1 equal "v_strain"
variable p2 equal "-pxx/1000"
variable p3 equal "-pyy/1000"
variable p4 equal "-pzz/1000"
fix def all print 100 "${p1} , ${p2} , ${p3} , ${p4}" file deform_data.txt screen no
restart 100000 deform.10000.rst
run 300000
unfix 4
unfix 5
undump 4 



